# Solution for model camouflage_srl_ilp
# Objective value = 1.6064916194883681e+00
Z_627_0_0 0
Z_627_0_1 1
Z_627_0_2 0
Z_627_0_3 0
Z_627_0_4 0
Z_154_1_0 0
Z_154_1_1 0
Z_154_1_2 1
Z_154_1_3 0
Z_154_1_4 0
Z_154_0_0 0
Z_154_0_1 0
Z_154_0_2 0
Z_154_0_3 0
Z_154_0_4 1
